
Gurobi 11.0.1 (win64) logging started Wed May 15 14:42:39 2024

Set parameter LogFile to value "output/solver_log12.txt"
Gurobi Optimizer version 11.0.1 build v11.0.1rc0 (win64 - Windows 11.0 (22631.2))

CPU model: 11th Gen Intel(R) Core(TM) i7-1165G7 @ 2.80GHz, instruction set [SSE2|AVX|AVX2|AVX512]
Thread count: 4 physical cores, 8 logical processors, using up to 8 threads

Optimize a model with 2137 rows, 389 columns and 39337 nonzeros
Model fingerprint: 0xaf202440
Variable types: 248 continuous, 141 integer (141 binary)
Coefficient statistics:
  Matrix range     [4e-01, 1e+05]
  Objective range  [1e+00, 1e+02]
  Bounds range     [1e+00, 1e+00]
  RHS range        [1e-02, 1e+05]

User MIP start produced solution with objective 39817 (0.00s)
User MIP start produced solution with objective 39817 (0.00s)
Loaded user MIP start with objective 39817

Presolve removed 98 rows and 100 columns
Presolve time: 0.04s
Presolved: 2039 rows, 289 columns, 38622 nonzeros
Variable types: 235 continuous, 54 integer (54 binary)

Root relaxation: objective 4.065950e+04, 672 iterations, 0.03 seconds (0.07 work units)

    Nodes    |    Current Node    |     Objective Bounds      |     Work
 Expl Unexpl |  Obj  Depth IntInf | Incumbent    BestBd   Gap | It/Node Time

     0     0 40659.4952    0   13 39816.9747 40659.4952  2.12%     -    0s
     0     0 40576.3716    0   11 39816.9747 40576.3716  1.91%     -    0s
H    0     0                    39818.351400 40576.3716  1.90%     -    0s
     0     0 40233.1393    0   10 39818.3514 40233.1393  1.04%     -    0s
     0     0 39850.8021    0    8 39818.3514 39850.8021  0.08%     -    0s

Cutting planes:
  Gomory: 3
  Implied bound: 1
  MIR: 9
  RLT: 1

Explored 1 nodes (1533 simplex iterations) in 0.32 seconds (0.47 work units)
Thread count was 8 (of 8 available processors)

Solution count 3: 39818.4 39818.4 39817 

Optimal solution found (tolerance 1.00e-04)
Best objective 3.981835140022e+04, best bound 3.981835140022e+04, gap 0.0000%
